c description: Tseitin formula on Random 5-regular graph of 80 vertices, with odd charge
c generator: CNFgen (0.9.0)
c copyright: (C) 2012-2020 Massimo Lauria <massimo.lauria@uniroma1.it>
c url: https://massimolauria.net/cnfgen
c random seed: 1
c command line: cnfgen --seed 1 tseitin randomodd gnd 80 5
c
p cnf 200 1280
1 2 3 4 -5 0
1 2 3 -4 5 0
1 2 -3 4 5 0
1 2 -3 -4 -5 0
1 -2 3 4 5 0
1 -2 3 -4 -5 0
1 -2 -3 4 -5 0
1 -2 -3 -4 5 0
-1 2 3 4 5 0
-1 2 3 -4 -5 0
-1 2 -3 4 -5 0
-1 2 -3 -4 5 0
-1 -2 3 4 -5 0
-1 -2 3 -4 5 0
-1 -2 -3 4 5 0
-1 -2 -3 -4 -5 0
6 7 8 9 -10 0
6 7 8 -9 10 0
6 7 -8 9 10 0
6 7 -8 -9 -10 0
6 -7 8 9 10 0
6 -7 8 -9 -10 0
6 -7 -8 9 -10 0
6 -7 -8 -9 10 0
-6 7 8 9 10 0
-6 7 8 -9 -10 0
-6 7 -8 9 -10 0
-6 7 -8 -9 10 0
-6 -7 8 9 -10 0
-6 -7 8 -9 10 0
-6 -7 -8 9 10 0
-6 -7 -8 -9 -10 0
11 12 13 14 15 0
11 12 13 -14 -15 0
11 12 -13 14 -15 0
11 12 -13 -14 15 0
11 -12 13 14 -15 0
11 -12 13 -14 15 0
11 -12 -13 14 15 0
11 -12 -13 -14 -15 0
-11 12 13 14 -15 0
-11 12 13 -14 15 0
-11 12 -13 14 15 0
-11 12 -13 -14 -15 0
-11 -12 13 14 15 0
-11 -12 13 -14 -15 0
-11 -12 -13 14 -15 0
-11 -12 -13 -14 15 0
11 16 17 18 -19 0
11 16 17 -18 19 0
11 16 -17 18 19 0
11 16 -17 -18 -19 0
11 -16 17 18 19 0
11 -16 17 -18 -19 0
11 -16 -17 18 -19 0
11 -16 -17 -18 19 0
-11 16 17 18 19 0
-11 16 17 -18 -19 0
-11 16 -17 18 -19 0
-11 16 -17 -18 19 0
-11 -16 17 18 -19 0
-11 -16 17 -18 19 0
-11 -16 -17 18 19 0
-11 -16 -17 -18 -19 0
20 21 22 23 24 0
20 21 22 -23 -24 0
20 21 -22 23 -24 0
20 21 -22 -23 24 0
20 -21 22 23 -24 0
20 -21 22 -23 24 0
20 -21 -22 23 24 0
20 -21 -22 -23 -24 0
-20 21 22 23 -24 0
-20 21 22 -23 24 0
-20 21 -22 23 24 0
-20 21 -22 -23 -24 0
-20 -21 22 23 24 0
-20 -21 22 -23 -24 0
-20 -21 -22 23 -24 0
-20 -21 -22 -23 24 0
12 25 26 27 28 0
12 25 26 -27 -28 0
12 25 -26 27 -28 0
12 25 -26 -27 28 0
12 -25 26 27 -28 0
12 -25 26 -27 28 0
12 -25 -26 27 28 0
12 -25 -26 -27 -28 0
-12 25 26 27 -28 0
-12 25 26 -27 28 0
-12 25 -26 27 28 0
-12 25 -26 -27 -28 0
-12 -25 26 27 28 0
-12 -25 26 -27 -28 0
-12 -25 -26 27 -28 0
-12 -25 -26 -27 28 0
29 30 31 32 33 0
29 30 31 -32 -33 0
29 30 -31 32 -33 0
29 30 -31 -32 33 0
29 -30 31 32 -33 0
29 -30 31 -32 33 0
29 -30 -31 32 33 0
29 -30 -31 -32 -33 0
-29 30 31 32 -33 0
-29 30 31 -32 33 0
-29 30 -31 32 33 0
-29 30 -31 -32 -33 0
-29 -30 31 32 33 0
-29 -30 31 -32 -33 0
-29 -30 -31 32 -33 0
-29 -30 -31 -32 33 0
16 34 35 36 37 0
16 34 35 -36 -37 0
16 34 -35 36 -37 0
16 34 -35 -36 37 0
16 -34 35 36 -37 0
16 -34 35 -36 37 0
16 -34 -35 36 37 0
16 -34 -35 -36 -37 0
-16 34 35 36 -37 0
-16 34 35 -36 37 0
-16 34 -35 36 37 0
-16 34 -35 -36 -37 0
-16 -34 35 36 37 0
-16 -34 35 -36 -37 0
-16 -34 -35 36 -37 0
-16 -34 -35 -36 37 0
17 25 38 39 -40 0
17 25 38 -39 40 0
17 25 -38 39 40 0
17 25 -38 -39 -40 0
17 -25 38 39 40 0
17 -25 38 -39 -40 0
17 -25 -38 39 -40 0
17 -25 -38 -39 40 0
-17 25 38 39 40 0
-17 25 38 -39 -40 0
-17 25 -38 39 -40 0
-17 25 -38 -39 40 0
-17 -25 38 39 -40 0
-17 -25 38 -39 40 0
-17 -25 -38 39 40 0
-17 -25 -38 -39 -40 0
29 41 42 43 -44 0
29 41 42 -43 44 0
29 41 -42 43 44 0
29 41 -42 -43 -44 0
29 -41 42 43 44 0
29 -41 42 -43 -44 0
29 -41 -42 43 -44 0
29 -41 -42 -43 44 0
-29 41 42 43 44 0
-29 41 42 -43 -44 0
-29 41 -42 43 -44 0
-29 41 -42 -43 44 0
-29 -41 42 43 -44 0
-29 -41 42 -43 44 0
-29 -41 -42 43 44 0
-29 -41 -42 -43 -44 0
45 46 47 48 49 0
45 46 47 -48 -49 0
45 46 -47 48 -49 0
45 46 -47 -48 49 0
45 -46 47 48 -49 0
45 -46 47 -48 49 0
45 -46 -47 48 49 0
45 -46 -47 -48 -49 0
-45 46 47 48 -49 0
-45 46 47 -48 49 0
-45 46 -47 48 49 0
-45 46 -47 -48 -49 0
-45 -46 47 48 49 0
-45 -46 47 -48 -49 0
-45 -46 -47 48 -49 0
-45 -46 -47 -48 49 0
50 51 52 53 -54 0
50 51 52 -53 54 0
50 51 -52 53 54 0
50 51 -52 -53 -54 0
50 -51 52 53 54 0
50 -51 52 -53 -54 0
50 -51 -52 53 -54 0
50 -51 -52 -53 54 0
-50 51 52 53 54 0
-50 51 52 -53 -54 0
-50 51 -52 53 -54 0
-50 51 -52 -53 54 0
-50 -51 52 53 -54 0
-50 -51 52 -53 54 0
-50 -51 -52 53 54 0
-50 -51 -52 -53 -54 0
45 55 56 57 58 0
45 55 56 -57 -58 0
45 55 -56 57 -58 0
45 55 -56 -57 58 0
45 -55 56 57 -58 0
45 -55 56 -57 58 0
45 -55 -56 57 58 0
45 -55 -56 -57 -58 0
-45 55 56 57 -58 0
-45 55 56 -57 58 0
-45 55 -56 57 58 0
-45 55 -56 -57 -58 0
-45 -55 56 57 58 0
-45 -55 56 -57 -58 0
-45 -55 -56 57 -58 0
-45 -55 -56 -57 58 0
26 59 60 61 62 0
26 59 60 -61 -62 0
26 59 -60 61 -62 0
26 59 -60 -61 62 0
26 -59 60 61 -62 0
26 -59 60 -61 62 0
26 -59 -60 61 62 0
26 -59 -60 -61 -62 0
-26 59 60 61 -62 0
-26 59 60 -61 62 0
-26 59 -60 61 62 0
-26 59 -60 -61 -62 0
-26 -59 60 61 62 0
-26 -59 60 -61 -62 0
-26 -59 -60 61 -62 0
-26 -59 -60 -61 62 0
34 63 64 65 -66 0
34 63 64 -65 66 0
34 63 -64 65 66 0
34 63 -64 -65 -66 0
34 -63 64 65 66 0
34 -63 64 -65 -66 0
34 -63 -64 65 -66 0
34 -63 -64 -65 66 0
-34 63 64 65 66 0
-34 63 64 -65 -66 0
-34 63 -64 65 -66 0
-34 63 -64 -65 66 0
-34 -63 64 65 -66 0
-34 -63 64 -65 66 0
-34 -63 -64 65 66 0
-34 -63 -64 -65 -66 0
27 59 67 68 69 0
27 59 67 -68 -69 0
27 59 -67 68 -69 0
27 59 -67 -68 69 0
27 -59 67 68 -69 0
27 -59 67 -68 69 0
27 -59 -67 68 69 0
27 -59 -67 -68 -69 0
-27 59 67 68 -69 0
-27 59 67 -68 69 0
-27 59 -67 68 69 0
-27 59 -67 -68 -69 0
-27 -59 67 68 69 0
-27 -59 67 -68 -69 0
-27 -59 -67 68 -69 0
-27 -59 -67 -68 69 0
20 70 71 72 73 0
20 70 71 -72 -73 0
20 70 -71 72 -73 0
20 70 -71 -72 73 0
20 -70 71 72 -73 0
20 -70 71 -72 73 0
20 -70 -71 72 73 0
20 -70 -71 -72 -73 0
-20 70 71 72 -73 0
-20 70 71 -72 73 0
-20 70 -71 72 73 0
-20 70 -71 -72 -73 0
-20 -70 71 72 73 0
-20 -70 71 -72 -73 0
-20 -70 -71 72 -73 0
-20 -70 -71 -72 73 0
46 74 75 76 -77 0
46 74 75 -76 77 0
46 74 -75 76 77 0
46 74 -75 -76 -77 0
46 -74 75 76 77 0
46 -74 75 -76 -77 0
46 -74 -75 76 -77 0
46 -74 -75 -76 77 0
-46 74 75 76 77 0
-46 74 75 -76 -77 0
-46 74 -75 76 -77 0
-46 74 -75 -76 77 0
-46 -74 75 76 -77 0
-46 -74 75 -76 77 0
-46 -74 -75 76 77 0
-46 -74 -75 -76 -77 0
63 74 78 79 -80 0
63 74 78 -79 80 0
63 74 -78 79 80 0
63 74 -78 -79 -80 0
63 -74 78 79 80 0
63 -74 78 -79 -80 0
63 -74 -78 79 -80 0
63 -74 -78 -79 80 0
-63 74 78 79 80 0
-63 74 78 -79 -80 0
-63 74 -78 79 -80 0
-63 74 -78 -79 80 0
-63 -74 78 79 -80 0
-63 -74 78 -79 80 0
-63 -74 -78 79 80 0
-63 -74 -78 -79 -80 0
41 81 82 83 84 0
41 81 82 -83 -84 0
41 81 -82 83 -84 0
41 81 -82 -83 84 0
41 -81 82 83 -84 0
41 -81 82 -83 84 0
41 -81 -82 83 84 0
41 -81 -82 -83 -84 0
-41 81 82 83 -84 0
-41 81 82 -83 84 0
-41 81 -82 83 84 0
-41 81 -82 -83 -84 0
-41 -81 82 83 84 0
-41 -81 82 -83 -84 0
-41 -81 -82 83 -84 0
-41 -81 -82 -83 84 0
35 85 86 87 -88 0
35 85 86 -87 88 0
35 85 -86 87 88 0
35 85 -86 -87 -88 0
35 -85 86 87 88 0
35 -85 86 -87 -88 0
35 -85 -86 87 -88 0
35 -85 -86 -87 88 0
-35 85 86 87 88 0
-35 85 86 -87 -88 0
-35 85 -86 87 -88 0
-35 85 -86 -87 88 0
-35 -85 86 87 -88 0
-35 -85 86 -87 88 0
-35 -85 -86 87 88 0
-35 -85 -86 -87 -88 0
6 21 78 89 -90 0
6 21 78 -89 90 0
6 21 -78 89 90 0
6 21 -78 -89 -90 0
6 -21 78 89 90 0
6 -21 78 -89 -90 0
6 -21 -78 89 -90 0
6 -21 -78 -89 90 0
-6 21 78 89 90 0
-6 21 78 -89 -90 0
-6 21 -78 89 -90 0
-6 21 -78 -89 90 0
-6 -21 78 89 -90 0
-6 -21 78 -89 90 0
-6 -21 -78 89 90 0
-6 -21 -78 -89 -90 0
85 91 92 93 -94 0
85 91 92 -93 94 0
85 91 -92 93 94 0
85 91 -92 -93 -94 0
85 -91 92 93 94 0
85 -91 92 -93 -94 0
85 -91 -92 93 -94 0
85 -91 -92 -93 94 0
-85 91 92 93 94 0
-85 91 92 -93 -94 0
-85 91 -92 93 -94 0
-85 91 -92 -93 94 0
-85 -91 92 93 -94 0
-85 -91 92 -93 94 0
-85 -91 -92 93 94 0
-85 -91 -92 -93 -94 0
81 95 96 97 -98 0
81 95 96 -97 98 0
81 95 -96 97 98 0
81 95 -96 -97 -98 0
81 -95 96 97 98 0
81 -95 96 -97 -98 0
81 -95 -96 97 -98 0
81 -95 -96 -97 98 0
-81 95 96 97 98 0
-81 95 96 -97 -98 0
-81 95 -96 97 -98 0
-81 95 -96 -97 98 0
-81 -95 96 97 -98 0
-81 -95 96 -97 98 0
-81 -95 -96 97 98 0
-81 -95 -96 -97 -98 0
99 100 101 102 103 0
99 100 101 -102 -103 0
99 100 -101 102 -103 0
99 100 -101 -102 103 0
99 -100 101 102 -103 0
99 -100 101 -102 103 0
99 -100 -101 102 103 0
99 -100 -101 -102 -103 0
-99 100 101 102 -103 0
-99 100 101 -102 103 0
-99 100 -101 102 103 0
-99 100 -101 -102 -103 0
-99 -100 101 102 103 0
-99 -100 101 -102 -103 0
-99 -100 -101 102 -103 0
-99 -100 -101 -102 103 0
1 104 105 106 -107 0
1 104 105 -106 107 0
1 104 -105 106 107 0
1 104 -105 -106 -107 0
1 -104 105 106 107 0
1 -104 105 -106 -107 0
1 -104 -105 106 -107 0
1 -104 -105 -106 107 0
-1 104 105 106 107 0
-1 104 105 -106 -107 0
-1 104 -105 106 -107 0
-1 104 -105 -106 107 0
-1 -104 105 106 -107 0
-1 -104 105 -106 107 0
-1 -104 -105 106 107 0
-1 -104 -105 -106 -107 0
108 109 110 111 112 0
108 109 110 -111 -112 0
108 109 -110 111 -112 0
108 109 -110 -111 112 0
108 -109 110 111 -112 0
108 -109 110 -111 112 0
108 -109 -110 111 112 0
108 -109 -110 -111 -112 0
-108 109 110 111 -112 0
-108 109 110 -111 112 0
-108 109 -110 111 112 0
-108 109 -110 -111 -112 0
-108 -109 110 111 112 0
-108 -109 110 -111 -112 0
-108 -109 -110 111 -112 0
-108 -109 -110 -111 112 0
47 99 113 114 -115 0
47 99 113 -114 115 0
47 99 -113 114 115 0
47 99 -113 -114 -115 0
47 -99 113 114 115 0
47 -99 113 -114 -115 0
47 -99 -113 114 -115 0
47 -99 -113 -114 115 0
-47 99 113 114 115 0
-47 99 113 -114 -115 0
-47 99 -113 114 -115 0
-47 99 -113 -114 115 0
-47 -99 113 114 -115 0
-47 -99 113 -114 115 0
-47 -99 -113 114 115 0
-47 -99 -113 -114 -115 0
50 91 116 117 -118 0
50 91 116 -117 118 0
50 91 -116 117 118 0
50 91 -116 -117 -118 0
50 -91 116 117 118 0
50 -91 116 -117 -118 0
50 -91 -116 117 -118 0
50 -91 -116 -117 118 0
-50 91 116 117 118 0
-50 91 116 -117 -118 0
-50 91 -116 117 -118 0
-50 91 -116 -117 118 0
-50 -91 116 117 -118 0
-50 -91 116 -117 118 0
-50 -91 -116 117 118 0
-50 -91 -116 -117 -118 0
7 36 119 120 121 0
7 36 119 -120 -121 0
7 36 -119 120 -121 0
7 36 -119 -120 121 0
7 -36 119 120 -121 0
7 -36 119 -120 121 0
7 -36 -119 120 121 0
7 -36 -119 -120 -121 0
-7 36 119 120 -121 0
-7 36 119 -120 121 0
-7 36 -119 120 121 0
-7 36 -119 -120 -121 0
-7 -36 119 120 121 0
-7 -36 119 -120 -121 0
-7 -36 -119 120 -121 0
-7 -36 -119 -120 121 0
2 42 119 122 123 0
2 42 119 -122 -123 0
2 42 -119 122 -123 0
2 42 -119 -122 123 0
2 -42 119 122 -123 0
2 -42 119 -122 123 0
2 -42 -119 122 123 0
2 -42 -119 -122 -123 0
-2 42 119 122 -123 0
-2 42 119 -122 123 0
-2 42 -119 122 123 0
-2 42 -119 -122 -123 0
-2 -42 119 122 123 0
-2 -42 119 -122 -123 0
-2 -42 -119 122 -123 0
-2 -42 -119 -122 123 0
13 124 125 126 -127 0
13 124 125 -126 127 0
13 124 -125 126 127 0
13 124 -125 -126 -127 0
13 -124 125 126 127 0
13 -124 125 -126 -127 0
13 -124 -125 126 -127 0
13 -124 -125 -126 127 0
-13 124 125 126 127 0
-13 124 125 -126 -127 0
-13 124 -125 126 -127 0
-13 124 -125 -126 127 0
-13 -124 125 126 -127 0
-13 -124 125 -126 127 0
-13 -124 -125 126 127 0
-13 -124 -125 -126 -127 0
64 82 128 129 130 0
64 82 128 -129 -130 0
64 82 -128 129 -130 0
64 82 -128 -129 130 0
64 -82 128 129 -130 0
64 -82 128 -129 130 0
64 -82 -128 129 130 0
64 -82 -128 -129 -130 0
-64 82 128 129 -130 0
-64 82 128 -129 130 0
-64 82 -128 129 130 0
-64 82 -128 -129 -130 0
-64 -82 128 129 130 0
-64 -82 128 -129 -130 0
-64 -82 -128 129 -130 0
-64 -82 -128 -129 130 0
48 104 131 132 -133 0
48 104 131 -132 133 0
48 104 -131 132 133 0
48 104 -131 -132 -133 0
48 -104 131 132 133 0
48 -104 131 -132 -133 0
48 -104 -131 132 -133 0
48 -104 -131 -132 133 0
-48 104 131 132 133 0
-48 104 131 -132 -133 0
-48 104 -131 132 -133 0
-48 104 -131 -132 133 0
-48 -104 131 132 -133 0
-48 -104 131 -132 133 0
-48 -104 -131 132 133 0
-48 -104 -131 -132 -133 0
30 55 100 134 -135 0
30 55 100 -134 135 0
30 55 -100 134 135 0
30 55 -100 -134 -135 0
30 -55 100 134 135 0
30 -55 100 -134 -135 0
30 -55 -100 134 -135 0
30 -55 -100 -134 135 0
-30 55 100 134 135 0
-30 55 100 -134 -135 0
-30 55 -100 134 -135 0
-30 55 -100 -134 135 0
-30 -55 100 134 -135 0
-30 -55 100 -134 135 0
-30 -55 -100 134 135 0
-30 -55 -100 -134 -135 0
70 113 124 136 137 0
70 113 124 -136 -137 0
70 113 -124 136 -137 0
70 113 -124 -136 137 0
70 -113 124 136 -137 0
70 -113 124 -136 137 0
70 -113 -124 136 137 0
70 -113 -124 -136 -137 0
-70 113 124 136 -137 0
-70 113 124 -136 137 0
-70 113 -124 136 137 0
-70 113 -124 -136 -137 0
-70 -113 124 136 137 0
-70 -113 124 -136 -137 0
-70 -113 -124 136 -137 0
-70 -113 -124 -136 137 0
67 83 138 139 140 0
67 83 138 -139 -140 0
67 83 -138 139 -140 0
67 83 -138 -139 140 0
67 -83 138 139 -140 0
67 -83 138 -139 140 0
67 -83 -138 139 140 0
67 -83 -138 -139 -140 0
-67 83 138 139 -140 0
-67 83 138 -139 140 0
-67 83 -138 139 140 0
-67 83 -138 -139 -140 0
-67 -83 138 139 140 0
-67 -83 138 -139 -140 0
-67 -83 -138 139 -140 0
-67 -83 -138 -139 140 0
51 141 142 143 -144 0
51 141 142 -143 144 0
51 141 -142 143 144 0
51 141 -142 -143 -144 0
51 -141 142 143 144 0
51 -141 142 -143 -144 0
51 -141 -142 143 -144 0
51 -141 -142 -143 144 0
-51 141 142 143 144 0
-51 141 142 -143 -144 0
-51 141 -142 143 -144 0
-51 141 -142 -143 144 0
-51 -141 142 143 -144 0
-51 -141 142 -143 144 0
-51 -141 -142 143 144 0
-51 -141 -142 -143 -144 0
22 92 145 146 147 0
22 92 145 -146 -147 0
22 92 -145 146 -147 0
22 92 -145 -146 147 0
22 -92 145 146 -147 0
22 -92 145 -146 147 0
22 -92 -145 146 147 0
22 -92 -145 -146 -147 0
-22 92 145 146 -147 0
-22 92 145 -146 147 0
-22 92 -145 146 147 0
-22 92 -145 -146 -147 0
-22 -92 145 146 147 0
-22 -92 145 -146 -147 0
-22 -92 -145 146 -147 0
-22 -92 -145 -146 147 0
122 148 149 150 -151 0
122 148 149 -150 151 0
122 148 -149 150 151 0
122 148 -149 -150 -151 0
122 -148 149 150 151 0
122 -148 149 -150 -151 0
122 -148 -149 150 -151 0
122 -148 -149 -150 151 0
-122 148 149 150 151 0
-122 148 149 -150 -151 0
-122 148 -149 150 -151 0
-122 148 -149 -150 151 0
-122 -148 149 150 -151 0
-122 -148 149 -150 151 0
-122 -148 -149 150 151 0
-122 -148 -149 -150 -151 0
125 134 152 153 -154 0
125 134 152 -153 154 0
125 134 -152 153 154 0
125 134 -152 -153 -154 0
125 -134 152 153 154 0
125 -134 152 -153 -154 0
125 -134 -152 153 -154 0
125 -134 -152 -153 154 0
-125 134 152 153 154 0
-125 134 152 -153 -154 0
-125 134 -152 153 -154 0
-125 134 -152 -153 154 0
-125 -134 152 153 -154 0
-125 -134 152 -153 154 0
-125 -134 -152 153 154 0
-125 -134 -152 -153 -154 0
79 120 155 156 157 0
79 120 155 -156 -157 0
79 120 -155 156 -157 0
79 120 -155 -156 157 0
79 -120 155 156 -157 0
79 -120 155 -156 157 0
79 -120 -155 156 157 0
79 -120 -155 -156 -157 0
-79 120 155 156 -157 0
-79 120 155 -156 157 0
-79 120 -155 156 157 0
-79 120 -155 -156 -157 0
-79 -120 155 156 157 0
-79 -120 155 -156 -157 0
-79 -120 -155 156 -157 0
-79 -120 -155 -156 157 0
14 93 141 158 -159 0
14 93 141 -158 159 0
14 93 -141 158 159 0
14 93 -141 -158 -159 0
14 -93 141 158 159 0
14 -93 141 -158 -159 0
14 -93 -141 158 -159 0
14 -93 -141 -158 159 0
-14 93 141 158 159 0
-14 93 141 -158 -159 0
-14 93 -141 158 -159 0
-14 93 -141 -158 159 0
-14 -93 141 158 -159 0
-14 -93 141 -158 159 0
-14 -93 -141 158 159 0
-14 -93 -141 -158 -159 0
126 131 148 160 161 0
126 131 148 -160 -161 0
126 131 -148 160 -161 0
126 131 -148 -160 161 0
126 -131 148 160 -161 0
126 -131 148 -160 161 0
126 -131 -148 160 161 0
126 -131 -148 -160 -161 0
-126 131 148 160 -161 0
-126 131 148 -160 161 0
-126 131 -148 160 161 0
-126 131 -148 -160 -161 0
-126 -131 148 160 161 0
-126 -131 148 -160 -161 0
-126 -131 -148 160 -161 0
-126 -131 -148 -160 161 0
43 49 75 162 163 0
43 49 75 -162 -163 0
43 49 -75 162 -163 0
43 49 -75 -162 163 0
43 -49 75 162 -163 0
43 -49 75 -162 163 0
43 -49 -75 162 163 0
43 -49 -75 -162 -163 0
-43 49 75 162 -163 0
-43 49 75 -162 163 0
-43 49 -75 162 163 0
-43 49 -75 -162 -163 0
-43 -49 75 162 163 0
-43 -49 75 -162 -163 0
-43 -49 -75 162 -163 0
-43 -49 -75 -162 163 0
95 152 164 165 -166 0
95 152 164 -165 166 0
95 152 -164 165 166 0
95 152 -164 -165 -166 0
95 -152 164 165 166 0
95 -152 164 -165 -166 0
95 -152 -164 165 -166 0
95 -152 -164 -165 166 0
-95 152 164 165 166 0
-95 152 164 -165 -166 0
-95 152 -164 165 -166 0
-95 152 -164 -165 166 0
-95 -152 164 165 -166 0
-95 -152 164 -165 166 0
-95 -152 -164 165 166 0
-95 -152 -164 -165 -166 0
38 89 105 167 168 0
38 89 105 -167 -168 0
38 89 -105 167 -168 0
38 89 -105 -167 168 0
38 -89 105 167 -168 0
38 -89 105 -167 168 0
38 -89 -105 167 168 0
38 -89 -105 -167 -168 0
-38 89 105 167 -168 0
-38 89 105 -167 168 0
-38 89 -105 167 168 0
-38 89 -105 -167 -168 0
-38 -89 105 167 168 0
-38 -89 105 -167 -168 0
-38 -89 -105 167 -168 0
-38 -89 -105 -167 168 0
15 106 121 142 169 0
15 106 121 -142 -169 0
15 106 -121 142 -169 0
15 106 -121 -142 169 0
15 -106 121 142 -169 0
15 -106 121 -142 169 0
15 -106 -121 142 169 0
15 -106 -121 -142 -169 0
-15 106 121 142 -169 0
-15 106 121 -142 169 0
-15 106 -121 142 169 0
-15 106 -121 -142 -169 0
-15 -106 121 142 169 0
-15 -106 121 -142 -169 0
-15 -106 -121 142 -169 0
-15 -106 -121 -142 169 0
18 94 155 170 171 0
18 94 155 -170 -171 0
18 94 -155 170 -171 0
18 94 -155 -170 171 0
18 -94 155 170 -171 0
18 -94 155 -170 171 0
18 -94 -155 170 171 0
18 -94 -155 -170 -171 0
-18 94 155 170 -171 0
-18 94 155 -170 171 0
-18 94 -155 170 171 0
-18 94 -155 -170 -171 0
-18 -94 155 170 171 0
-18 -94 155 -170 -171 0
-18 -94 -155 170 -171 0
-18 -94 -155 -170 171 0
90 116 149 164 172 0
90 116 149 -164 -172 0
90 116 -149 164 -172 0
90 116 -149 -164 172 0
90 -116 149 164 -172 0
90 -116 149 -164 172 0
90 -116 -149 164 172 0
90 -116 -149 -164 -172 0
-90 116 149 164 -172 0
-90 116 149 -164 172 0
-90 116 -149 164 172 0
-90 116 -149 -164 -172 0
-90 -116 149 164 172 0
-90 -116 149 -164 -172 0
-90 -116 -149 164 -172 0
-90 -116 -149 -164 172 0
28 136 153 167 -173 0
28 136 153 -167 173 0
28 136 -153 167 173 0
28 136 -153 -167 -173 0
28 -136 153 167 173 0
28 -136 153 -167 -173 0
28 -136 -153 167 -173 0
28 -136 -153 -167 173 0
-28 136 153 167 173 0
-28 136 153 -167 -173 0
-28 136 -153 167 -173 0
-28 136 -153 -167 173 0
-28 -136 153 167 -173 0
-28 -136 153 -167 173 0
-28 -136 -153 167 173 0
-28 -136 -153 -167 -173 0
84 132 174 175 176 0
84 132 174 -175 -176 0
84 132 -174 175 -176 0
84 132 -174 -175 176 0
84 -132 174 175 -176 0
84 -132 174 -175 176 0
84 -132 -174 175 176 0
84 -132 -174 -175 -176 0
-84 132 174 175 -176 0
-84 132 174 -175 176 0
-84 132 -174 175 176 0
-84 132 -174 -175 -176 0
-84 -132 174 175 176 0
-84 -132 174 -175 -176 0
-84 -132 -174 175 -176 0
-84 -132 -174 -175 176 0
137 145 177 178 -179 0
137 145 177 -178 179 0
137 145 -177 178 179 0
137 145 -177 -178 -179 0
137 -145 177 178 179 0
137 -145 177 -178 -179 0
137 -145 -177 178 -179 0
137 -145 -177 -178 179 0
-137 145 177 178 179 0
-137 145 177 -178 -179 0
-137 145 -177 178 -179 0
-137 145 -177 -178 179 0
-137 -145 177 178 -179 0
-137 -145 177 -178 179 0
-137 -145 -177 178 179 0
-137 -145 -177 -178 -179 0
76 172 174 177 180 0
76 172 174 -177 -180 0
76 172 -174 177 -180 0
76 172 -174 -177 180 0
76 -172 174 177 -180 0
76 -172 174 -177 180 0
76 -172 -174 177 180 0
76 -172 -174 -177 -180 0
-76 172 174 177 -180 0
-76 172 174 -177 180 0
-76 172 -174 177 180 0
-76 172 -174 -177 -180 0
-76 -172 174 177 180 0
-76 -172 174 -177 -180 0
-76 -172 -174 177 -180 0
-76 -172 -174 -177 180 0
56 86 128 181 182 0
56 86 128 -181 -182 0
56 86 -128 181 -182 0
56 86 -128 -181 182 0
56 -86 128 181 -182 0
56 -86 128 -181 182 0
56 -86 -128 181 182 0
56 -86 -128 -181 -182 0
-56 86 128 181 -182 0
-56 86 128 -181 182 0
-56 86 -128 181 182 0
-56 86 -128 -181 -182 0
-56 -86 128 181 182 0
-56 -86 128 -181 -182 0
-56 -86 -128 181 -182 0
-56 -86 -128 -181 182 0
57 71 127 150 -183 0
57 71 127 -150 183 0
57 71 -127 150 183 0
57 71 -127 -150 -183 0
57 -71 127 150 183 0
57 -71 127 -150 -183 0
57 -71 -127 150 -183 0
57 -71 -127 -150 183 0
-57 71 127 150 183 0
-57 71 127 -150 -183 0
-57 71 -127 150 -183 0
-57 71 -127 -150 183 0
-57 -71 127 150 -183 0
-57 -71 127 -150 183 0
-57 -71 -127 150 183 0
-57 -71 -127 -150 -183 0
65 101 138 184 185 0
65 101 138 -184 -185 0
65 101 -138 184 -185 0
65 101 -138 -184 185 0
65 -101 138 184 -185 0
65 -101 138 -184 185 0
65 -101 -138 184 185 0
65 -101 -138 -184 -185 0
-65 101 138 184 -185 0
-65 101 138 -184 185 0
-65 101 -138 184 185 0
-65 101 -138 -184 -185 0
-65 -101 138 184 185 0
-65 -101 138 -184 -185 0
-65 -101 -138 184 -185 0
-65 -101 -138 -184 185 0
156 180 184 186 187 0
156 180 184 -186 -187 0
156 180 -184 186 -187 0
156 180 -184 -186 187 0
156 -180 184 186 -187 0
156 -180 184 -186 187 0
156 -180 -184 186 187 0
156 -180 -184 -186 -187 0
-156 180 184 186 -187 0
-156 180 184 -186 187 0
-156 180 -184 186 187 0
-156 180 -184 -186 -187 0
-156 -180 184 186 187 0
-156 -180 184 -186 -187 0
-156 -180 -184 186 -187 0
-156 -180 -184 -186 187 0
8 39 114 162 -188 0
8 39 114 -162 188 0
8 39 -114 162 188 0
8 39 -114 -162 -188 0
8 -39 114 162 188 0
8 -39 114 -162 -188 0
8 -39 -114 162 -188 0
8 -39 -114 -162 188 0
-8 39 114 162 188 0
-8 39 114 -162 -188 0
-8 39 -114 162 -188 0
-8 39 -114 -162 188 0
-8 -39 114 162 -188 0
-8 -39 114 -162 188 0
-8 -39 -114 162 188 0
-8 -39 -114 -162 -188 0
102 108 139 189 190 0
102 108 139 -189 -190 0
102 108 -139 189 -190 0
102 108 -139 -189 190 0
102 -108 139 189 -190 0
102 -108 139 -189 190 0
102 -108 -139 189 190 0
102 -108 -139 -189 -190 0
-102 108 139 189 -190 0
-102 108 139 -189 190 0
-102 108 -139 189 190 0
-102 108 -139 -189 -190 0
-102 -108 139 189 190 0
-102 -108 139 -189 -190 0
-102 -108 -139 189 -190 0
-102 -108 -139 -189 190 0
52 60 133 140 -158 0
52 60 133 -140 158 0
52 60 -133 140 158 0
52 60 -133 -140 -158 0
52 -60 133 140 158 0
52 -60 133 -140 -158 0
52 -60 -133 140 -158 0
52 -60 -133 -140 158 0
-52 60 133 140 158 0
-52 60 133 -140 -158 0
-52 60 -133 140 -158 0
-52 60 -133 -140 158 0
-52 -60 133 140 -158 0
-52 -60 133 -140 158 0
-52 -60 -133 140 158 0
-52 -60 -133 -140 -158 0
109 143 170 173 -191 0
109 143 170 -173 191 0
109 143 -170 173 191 0
109 143 -170 -173 -191 0
109 -143 170 173 191 0
109 -143 170 -173 -191 0
109 -143 -170 173 -191 0
109 -143 -170 -173 191 0
-109 143 170 173 191 0
-109 143 170 -173 -191 0
-109 143 -170 173 -191 0
-109 143 -170 -173 191 0
-109 -143 170 173 -191 0
-109 -143 170 -173 191 0
-109 -143 -170 173 191 0
-109 -143 -170 -173 -191 0
96 146 189 192 193 0
96 146 189 -192 -193 0
96 146 -189 192 -193 0
96 146 -189 -192 193 0
96 -146 189 192 -193 0
96 -146 189 -192 193 0
96 -146 -189 192 193 0
96 -146 -189 -192 -193 0
-96 146 189 192 -193 0
-96 146 189 -192 193 0
-96 146 -189 192 193 0
-96 146 -189 -192 -193 0
-96 -146 189 192 193 0
-96 -146 189 -192 -193 0
-96 -146 -189 192 -193 0
-96 -146 -189 -192 193 0
3 9 31 183 194 0
3 9 31 -183 -194 0
3 9 -31 183 -194 0
3 9 -31 -183 194 0
3 -9 31 183 -194 0
3 -9 31 -183 194 0
3 -9 -31 183 194 0
3 -9 -31 -183 -194 0
-3 9 31 183 -194 0
-3 9 31 -183 194 0
-3 9 -31 183 194 0
-3 9 -31 -183 -194 0
-3 -9 31 183 194 0
-3 -9 31 -183 -194 0
-3 -9 -31 183 -194 0
-3 -9 -31 -183 194 0
32 53 103 169 195 0
32 53 103 -169 -195 0
32 53 -103 169 -195 0
32 53 -103 -169 195 0
32 -53 103 169 -195 0
32 -53 103 -169 195 0
32 -53 -103 169 195 0
32 -53 -103 -169 -195 0
-32 53 103 169 -195 0
-32 53 103 -169 195 0
-32 53 -103 169 195 0
-32 53 -103 -169 -195 0
-32 -53 103 169 195 0
-32 -53 103 -169 -195 0
-32 -53 -103 169 -195 0
-32 -53 -103 -169 195 0
58 66 72 87 -196 0
58 66 72 -87 196 0
58 66 -72 87 196 0
58 66 -72 -87 -196 0
58 -66 72 87 196 0
58 -66 72 -87 -196 0
58 -66 -72 87 -196 0
58 -66 -72 -87 196 0
-58 66 72 87 196 0
-58 66 72 -87 -196 0
-58 66 -72 87 -196 0
-58 66 -72 -87 196 0
-58 -66 72 87 -196 0
-58 -66 72 -87 196 0
-58 -66 -72 87 196 0
-58 -66 -72 -87 -196 0
110 165 171 192 197 0
110 165 171 -192 -197 0
110 165 -171 192 -197 0
110 165 -171 -192 197 0
110 -165 171 192 -197 0
110 -165 171 -192 197 0
110 -165 -171 192 197 0
110 -165 -171 -192 -197 0
-110 165 171 192 -197 0
-110 165 171 -192 197 0
-110 165 -171 192 197 0
-110 165 -171 -192 -197 0
-110 -165 171 192 197 0
-110 -165 171 -192 -197 0
-110 -165 -171 192 -197 0
-110 -165 -171 -192 197 0
10 23 159 186 -198 0
10 23 159 -186 198 0
10 23 -159 186 198 0
10 23 -159 -186 -198 0
10 -23 159 186 198 0
10 -23 159 -186 -198 0
10 -23 -159 186 -198 0
10 -23 -159 -186 198 0
-10 23 159 186 198 0
-10 23 159 -186 -198 0
-10 23 -159 186 -198 0
-10 23 -159 -186 198 0
-10 -23 159 186 -198 0
-10 -23 159 -186 198 0
-10 -23 -159 186 198 0
-10 -23 -159 -186 -198 0
61 88 117 166 181 0
61 88 117 -166 -181 0
61 88 -117 166 -181 0
61 88 -117 -166 181 0
61 -88 117 166 -181 0
61 -88 117 -166 181 0
61 -88 -117 166 181 0
61 -88 -117 -166 -181 0
-61 88 117 166 -181 0
-61 88 117 -166 181 0
-61 88 -117 166 181 0
-61 88 -117 -166 -181 0
-61 -88 117 166 181 0
-61 -88 117 -166 -181 0
-61 -88 -117 166 -181 0
-61 -88 -117 -166 181 0
118 151 160 193 196 0
118 151 160 -193 -196 0
118 151 -160 193 -196 0
118 151 -160 -193 196 0
118 -151 160 193 -196 0
118 -151 160 -193 196 0
118 -151 -160 193 196 0
118 -151 -160 -193 -196 0
-118 151 160 193 -196 0
-118 151 160 -193 196 0
-118 151 -160 193 196 0
-118 151 -160 -193 -196 0
-118 -151 160 193 196 0
-118 -151 160 -193 -196 0
-118 -151 -160 193 -196 0
-118 -151 -160 -193 196 0
62 68 107 115 -198 0
62 68 107 -115 198 0
62 68 -107 115 198 0
62 68 -107 -115 -198 0
62 -68 107 115 198 0
62 -68 107 -115 -198 0
62 -68 -107 115 -198 0
62 -68 -107 -115 198 0
-62 68 107 115 198 0
-62 68 107 -115 -198 0
-62 68 -107 115 -198 0
-62 68 -107 -115 198 0
-62 -68 107 115 -198 0
-62 -68 107 -115 198 0
-62 -68 -107 115 198 0
-62 -68 -107 -115 -198 0
44 97 111 135 -191 0
44 97 111 -135 191 0
44 97 -111 135 191 0
44 97 -111 -135 -191 0
44 -97 111 135 191 0
44 -97 111 -135 -191 0
44 -97 -111 135 -191 0
44 -97 -111 -135 191 0
-44 97 111 135 191 0
-44 97 111 -135 -191 0
-44 97 -111 135 -191 0
-44 97 -111 -135 191 0
-44 -97 111 135 -191 0
-44 -97 111 -135 191 0
-44 -97 -111 135 191 0
-44 -97 -111 -135 -191 0
37 112 175 187 -199 0
37 112 175 -187 199 0
37 112 -175 187 199 0
37 112 -175 -187 -199 0
37 -112 175 187 199 0
37 -112 175 -187 -199 0
37 -112 -175 187 -199 0
37 -112 -175 -187 199 0
-37 112 175 187 199 0
-37 112 175 -187 -199 0
-37 112 -175 187 -199 0
-37 112 -175 -187 199 0
-37 -112 175 187 -199 0
-37 -112 175 -187 199 0
-37 -112 -175 187 199 0
-37 -112 -175 -187 -199 0
129 147 176 178 -200 0
129 147 176 -178 200 0
129 147 -176 178 200 0
129 147 -176 -178 -200 0
129 -147 176 178 200 0
129 -147 176 -178 -200 0
129 -147 -176 178 -200 0
129 -147 -176 -178 200 0
-129 147 176 178 200 0
-129 147 176 -178 -200 0
-129 147 -176 178 -200 0
-129 147 -176 -178 200 0
-129 -147 176 178 -200 0
-129 -147 176 -178 200 0
-129 -147 -176 178 200 0
-129 -147 -176 -178 -200 0
19 80 154 182 -197 0
19 80 154 -182 197 0
19 80 -154 182 197 0
19 80 -154 -182 -197 0
19 -80 154 182 197 0
19 -80 154 -182 -197 0
19 -80 -154 182 -197 0
19 -80 -154 -182 197 0
-19 80 154 182 197 0
-19 80 154 -182 -197 0
-19 80 -154 182 -197 0
-19 80 -154 -182 197 0
-19 -80 154 182 -197 0
-19 -80 154 -182 197 0
-19 -80 -154 182 197 0
-19 -80 -154 -182 -197 0
4 33 161 190 -195 0
4 33 161 -190 195 0
4 33 -161 190 195 0
4 33 -161 -190 -195 0
4 -33 161 190 195 0
4 -33 161 -190 -195 0
4 -33 -161 190 -195 0
4 -33 -161 -190 195 0
-4 33 161 190 195 0
-4 33 161 -190 -195 0
-4 33 -161 190 -195 0
-4 33 -161 -190 195 0
-4 -33 161 190 -195 0
-4 -33 161 -190 195 0
-4 -33 -161 190 195 0
-4 -33 -161 -190 -195 0
77 123 130 163 179 0
77 123 130 -163 -179 0
77 123 -130 163 -179 0
77 123 -130 -163 179 0
77 -123 130 163 -179 0
77 -123 130 -163 179 0
77 -123 -130 163 179 0
77 -123 -130 -163 -179 0
-77 123 130 163 -179 0
-77 123 130 -163 179 0
-77 123 -130 163 179 0
-77 123 -130 -163 -179 0
-77 -123 130 163 179 0
-77 -123 130 -163 -179 0
-77 -123 -130 163 -179 0
-77 -123 -130 -163 179 0
40 69 73 185 200 0
40 69 73 -185 -200 0
40 69 -73 185 -200 0
40 69 -73 -185 200 0
40 -69 73 185 -200 0
40 -69 73 -185 200 0
40 -69 -73 185 200 0
40 -69 -73 -185 -200 0
-40 69 73 185 -200 0
-40 69 73 -185 200 0
-40 69 -73 185 200 0
-40 69 -73 -185 -200 0
-40 -69 73 185 200 0
-40 -69 73 -185 -200 0
-40 -69 -73 185 -200 0
-40 -69 -73 -185 200 0
24 98 144 157 188 0
24 98 144 -157 -188 0
24 98 -144 157 -188 0
24 98 -144 -157 188 0
24 -98 144 157 -188 0
24 -98 144 -157 188 0
24 -98 -144 157 188 0
24 -98 -144 -157 -188 0
-24 98 144 157 -188 0
-24 98 144 -157 188 0
-24 98 -144 157 188 0
-24 98 -144 -157 -188 0
-24 -98 144 157 188 0
-24 -98 144 -157 -188 0
-24 -98 -144 157 -188 0
-24 -98 -144 -157 188 0
5 54 168 194 -199 0
5 54 168 -194 199 0
5 54 -168 194 199 0
5 54 -168 -194 -199 0
5 -54 168 194 199 0
5 -54 168 -194 -199 0
5 -54 -168 194 -199 0
5 -54 -168 -194 199 0
-5 54 168 194 199 0
-5 54 168 -194 -199 0
-5 54 -168 194 -199 0
-5 54 -168 -194 199 0
-5 -54 168 194 -199 0
-5 -54 168 -194 199 0
-5 -54 -168 194 199 0
-5 -54 -168 -194 -199 0
